26801
1 0 0 0 1 0 0 0 0 0 1 0 1 1 0 0 0 0 1 1 1 1 0 0 1 1 0 0 1 0
18 19 21 24 21 12 21 28 18 28 4 28 13 13 28 18 13 20 24 0 18 21 10 24 10 18 24 19 4 21 19 19 4 21 28 12 20 20 24 21 18 20 12 4 20 19 13 21 19 20 24 24 24 21 20 12 25 20 18 25 4 0 18 20 13 25 0 19 28 25 18 12 19 20 10 13 10 10 20 24 10 0 20 25 4 13 19 0 24 25 28 19 25 25 0 13 28 12 0 28 28 21 25 18 4 0 4 24 24 13 19 4 18 12 12 20 28 25 0 20 20 25 28 19 4 21 21 12 19 0 28 24 25 10 13 20 13 13 28 10 12 18 12 25 25 0 24 21 18 25 24 0 10 0 20 12 21 21 13 13 13 0 10 0 10 18 10 4 13 21 13 20 19 10 4 21 0 10 4 10 21 21 21 19 12 20 12 10 0 21 21 21 19 4 25 12 25 21 10 19
